c generated by sgen1
c Command: ./sgen1 -n 30 -unsat -s 2993 
p cnf 33 76
-2 -3 -4 0
-1 -3 -4 0
-1 -2 -4 0
-1 -2 -3 0
-6 -7 -8 0
-5 -7 -8 0
-5 -6 -8 0
-5 -6 -7 0
-10 -11 -12 0
-9 -11 -12 0
-9 -10 -12 0
-9 -10 -11 0
-14 -15 -16 0
-13 -15 -16 0
-13 -14 -16 0
-13 -14 -15 0
-18 -19 -20 0
-17 -19 -20 0
-17 -18 -20 0
-17 -18 -19 0
-22 -23 -24 0
-21 -23 -24 0
-21 -22 -24 0
-21 -22 -23 0
-26 -27 -28 0
-25 -27 -28 0
-25 -26 -28 0
-25 -26 -27 0
-29 -30 -31  0
-29 -30 -32  0
-29 -30 -33  0
-29 -31 -32  0
-29 -31 -33  0
-29 -32 -33  0
-30 -31 -32  0
-30 -31 -33  0
-30 -32 -33  0
-31 -32 -33  0
10 3 19 0
22 3 19 0
22 10 19 0
22 10 3 0
9 16 30 0
17 16 30 0
17 9 30 0
17 9 16 0
25 23 20 0
33 23 20 0
33 25 20 0
33 25 23 0
28 29 12 0
1 29 12 0
1 28 12 0
1 28 29 0
15 6 27 0
11 6 27 0
11 15 27 0
11 15 6 0
7 32 4 0
18 32 4 0
18 7 4 0
18 7 32 0
31 21 8 0
14 21 8 0
14 31 8 0
14 31 21 0
2 24 26  0
2 24 5  0
2 24 13  0
2 26 5  0
2 26 13  0
2 5 13  0
24 26 5  0
24 26 13  0
24 5 13  0
26 5 13  0
